Route #1: 26 7 53 59 14 35
Route #2: 4 29 5 47 48 30
Route #3: 45 27 52 8 46 34
Route #4: 19 54 13 57 15 37 20 60 36
Route #5: 21 61 22 64 42 41 43
Route #6: 16 49 24 56 23 63 6
Route #7: 2 28 62 1 33 51
Route #8: 17 3 44 32 40
Route #9: 9 50 18 55 25 31 39
Route #10: 12 58 10 38 11
Cost 826